N = 12;
H = 5;
T = 2;

avail = array3d(1..N, 1..H, 1..T, [6, 0, 2, 7, 2, 2, 9, 10, 9, 1, 7, 1, 2, 7, 8, 4, 5, 6, 7, 4, 4, 5, 6, 9, 6, 10, 1, 5, 4, 7, 9, 0, 7, 9, 5, 4, 9, 0, 7, 3, 10, 4, 5, 10, 2, 9, 7, 10, 10, 5, 5, 5, 8, 1, 5, 7, 9, 1, 10, 9, 2, 0, 10, 9, 9, 0, 4, 1, 10, 5, 0, 2, 5, 8, 8, 1, 10, 0, 0, 0, 1, 6, 4, 3, 9, 10, 0, 6, 7, 0, 6, 7, 5, 5, 2, 1, 5, 4, 8, 2, 5, 10, 10, 10, 10, 10, 3, 6, 5, 7, 7, 2, 2, 4, 5, 7, 2, 4, 10, 1]);

r = array2d(1..H, 1..T, [4, 2, 5, 3, 3, 2, 3, 4, 5, 5]);
